p edge 191 2360
e 1 2 6
e 1 4 9
e 1 7 8
e 1 9 4
e 1 13 7
e 1 15 8
e 1 18 8
e 1 20 7
e 1 25 1
e 1 27 3
e 1 30 2
e 1 32 5
e 1 36 7
e 1 38 6
e 1 41 10
e 1 43 7
e 1 49 7
e 1 51 9
e 1 54 9
e 1 56 6
e 1 60 3
e 1 62 8
e 1 65 8
e 1 67 10
e 1 72 1
e 1 74 4
e 1 77 7
e 1 79 2
e 1 83 6
e 1 85 7
e 1 88 5
e 1 90 7
e 1 97 3
e 1 99 7
e 1 102 5
e 1 104 3
e 1 108 9
e 1 110 9
e 1 113 8
e 1 115 5
e 1 120 3
e 1 122 8
e 1 125 3
e 1 127 5
e 1 131 2
e 1 133 1
e 1 136 6
e 1 138 4
e 1 144 6
e 1 146 6
e 1 149 10
e 1 151 2
e 1 155 4
e 1 157 9
e 1 160 4
e 1 162 3
e 1 167 7
e 1 169 7
e 1 172 10
e 1 174 6
e 1 178 9
e 1 180 4
e 1 183 1
e 1 185 8
e 2 3 5
e 2 6 1
e 2 8 9
e 2 12 8
e 2 14 4
e 2 17 3
e 2 19 5
e 2 24 3
e 2 26 10
e 2 29 10
e 2 31 4
e 2 35 6
e 2 37 2
e 2 40 3
e 2 42 5
e 2 48 8
e 2 50 6
e 2 53 8
e 2 55 7
e 2 59 10
e 2 61 1
e 2 64 2
e 2 66 9
e 2 71 8
e 2 73 7
e 2 76 5
e 2 78 9
e 2 82 7
e 2 84 1
e 2 87 8
e 2 89 2
e 2 96 1
e 2 98 2
e 2 101 8
e 2 103 9
e 2 107 5
e 2 109 7
e 2 112 9
e 2 114 2
e 2 119 7
e 2 121 4
e 2 124 9
e 2 126 1
e 2 130 1
e 2 132 6
e 2 135 4
e 2 137 2
e 2 143 1
e 2 145 5
e 2 148 3
e 2 150 9
e 2 154 8
e 2 156 2
e 2 159 8
e 2 161 9
e 2 166 2
e 2 168 5
e 2 171 9
e 2 173 8
e 2 177 10
e 2 179 4
e 2 182 4
e 2 184 10
e 3 5 8
e 3 7 9
e 3 10 1
e 3 13 6
e 3 16 5
e 3 18 8
e 3 21 10
e 3 25 7
e 3 28 4
e 3 30 7
e 3 33 4
e 3 36 5
e 3 39 8
e 3 41 10
e 3 44 8
e 3 49 7
e 3 52 6
e 3 54 9
e 3 57 8
e 3 60 5
e 3 63 2
e 3 65 2
e 3 68 10
e 3 72 9
e 3 75 6
e 3 77 2
e 3 80 3
e 3 83 4
e 3 86 10
e 3 88 5
e 3 91 2
e 3 97 10
e 3 100 4
e 3 102 5
e 3 105 1
e 3 108 6
e 3 111 8
e 3 113 3
e 3 116 4
e 3 120 7
e 3 123 5
e 3 125 6
e 3 128 7
e 3 131 5
e 3 134 2
e 3 136 2
e 3 139 5
e 3 144 8
e 3 147 10
e 3 149 3
e 3 152 7
e 3 155 8
e 3 158 7
e 3 160 7
e 3 163 6
e 3 167 9
e 3 170 6
e 3 172 9
e 3 175 5
e 3 178 6
e 3 181 10
e 3 183 2
e 3 186 7
e 4 5 3
e 4 6 3
e 4 10 9
e 4 12 2
e 4 16 5
e 4 17 9
e 4 21 7
e 4 24 10
e 4 28 1
e 4 29 9
e 4 33 10
e 4 35 8
e 4 39 6
e 4 40 7
e 4 44 6
e 4 48 4
e 4 52 5
e 4 53 9
e 4 57 10
e 4 59 10
e 4 63 5
e 4 64 2
e 4 68 3
e 4 71 7
e 4 75 10
e 4 76 2
e 4 80 7
e 4 82 1
e 4 86 9
e 4 87 5
e 4 91 4
e 4 96 5
e 4 100 6
e 4 101 10
e 4 105 1
e 4 107 1
e 4 111 8
e 4 112 4
e 4 116 9
e 4 119 6
e 4 123 2
e 4 124 7
e 4 128 3
e 4 130 9
e 4 134 5
e 4 135 1
e 4 139 9
e 4 143 8
e 4 147 7
e 4 148 3
e 4 152 6
e 4 154 6
e 4 158 9
e 4 159 4
e 4 163 9
e 4 166 3
e 4 170 10
e 4 171 1
e 4 175 10
e 4 177 2
e 4 181 7
e 4 182 2
e 4 186 5
e 5 8 8
e 5 9 4
e 5 14 7
e 5 15 9
e 5 19 8
e 5 20 2
e 5 26 8
e 5 27 1
e 5 31 9
e 5 32 5
e 5 37 2
e 5 38 8
e 5 42 5
e 5 43 5
e 5 50 9
e 5 51 2
e 5 55 4
e 5 56 5
e 5 61 4
e 5 62 9
e 5 66 2
e 5 67 9
e 5 73 1
e 5 74 6
e 5 78 4
e 5 79 5
e 5 84 8
e 5 85 5
e 5 89 4
e 5 90 1
e 5 98 10
e 5 99 7
e 5 103 9
e 5 104 4
e 5 109 5
e 5 110 7
e 5 114 10
e 5 115 10
e 5 121 3
e 5 122 2
e 5 126 1
e 5 127 7
e 5 132 6
e 5 133 7
e 5 137 4
e 5 138 3
e 5 145 4
e 5 146 1
e 5 150 9
e 5 151 1
e 5 156 8
e 5 157 9
e 5 161 1
e 5 162 9
e 5 168 1
e 5 169 1
e 5 173 8
e 5 174 6
e 5 179 8
e 5 180 4
e 5 184 10
e 5 185 9
e 6 11 6
e 6 13 4
e 6 15 4
e 6 22 9
e 6 25 6
e 6 27 7
e 6 34 8
e 6 36 9
e 6 38 10
e 6 45 10
e 6 49 4
e 6 51 7
e 6 58 5
e 6 60 6
e 6 62 6
e 6 69 8
e 6 72 5
e 6 74 8
e 6 81 7
e 6 83 8
e 6 85 2
e 6 92 10
e 6 97 10
e 6 99 2
e 6 106 1
e 6 108 6
e 6 110 10
e 6 117 6
e 6 120 7
e 6 122 8
e 6 129 1
e 6 131 4
e 6 133 2
e 6 140 6
e 6 144 4
e 6 146 6
e 6 153 7
e 6 155 4
e 6 157 4
e 6 164 3
e 6 167 3
e 6 169 3
e 6 176 8
e 6 178 6
e 6 180 4
e 6 187 6
e 7 11 2
e 7 12 2
e 7 14 4
e 7 22 9
e 7 24 7
e 7 26 6
e 7 34 3
e 7 35 2
e 7 37 8
e 7 45 1
e 7 48 6
e 7 50 3
e 7 58 4
e 7 59 7
e 7 61 8
e 7 69 6
e 7 71 7
e 7 73 4
e 7 81 9
e 7 82 4
e 7 84 9
e 7 92 8
e 7 96 5
e 7 98 9
e 7 106 5
e 7 107 4
e 7 109 1
e 7 117 4
e 7 119 5
e 7 121 2
e 7 129 1
e 7 130 10
e 7 132 5
e 7 140 10
e 7 143 4
e 7 145 1
e 7 153 1
e 7 154 3
e 7 156 4
e 7 164 6
e 7 166 6
e 7 168 10
e 7 176 3
e 7 177 4
e 7 179 7
e 7 187 8
e 8 11 9
e 8 13 7
e 8 16 2
e 8 22 7
e 8 25 5
e 8 28 6
e 8 34 7
e 8 36 8
e 8 39 8
e 8 45 4
e 8 49 4
e 8 52 9
e 8 58 9
e 8 60 7
e 8 63 3
e 8 69 9
e 8 72 10
e 8 75 2
e 8 81 3
e 8 83 2
e 8 86 8
e 8 92 7
e 8 97 8
e 8 100 7
e 8 106 8
e 8 108 10
e 8 111 4
e 8 117 7
e 8 120 1
e 8 123 7
e 8 129 3
e 8 131 9
e 8 134 5
e 8 140 8
e 8 144 1
e 8 147 9
e 8 153 5
e 8 155 8
e 8 158 7
e 8 164 5
e 8 167 5
e 8 170 6
e 8 176 8
e 8 178 7
e 8 181 1
e 8 187 5
e 9 11 4
e 9 12 7
e 9 16 4
e 9 22 4
e 9 24 1
e 9 28 2
e 9 34 1
e 9 35 4
e 9 39 10
e 9 45 7
e 9 48 9
e 9 52 9
e 9 58 9
e 9 59 8
e 9 63 2
e 9 69 2
e 9 71 8
e 9 75 7
e 9 81 9
e 9 82 7
e 9 86 9
e 9 92 1
e 9 96 9
e 9 100 7
e 9 106 2
e 9 107 1
e 9 111 6
e 9 117 7
e 9 119 4
e 9 123 4
e 9 129 6
e 9 130 7
e 9 134 3
e 9 140 4
e 9 143 9
e 9 147 2
e 9 153 7
e 9 154 7
e 9 158 4
e 9 164 4
e 9 166 1
e 9 170 2
e 9 176 7
e 9 177 2
e 9 181 9
e 9 187 5
e 10 11 1
e 10 14 10
e 10 15 5
e 10 22 1
e 10 26 2
e 10 27 8
e 10 34 9
e 10 37 3
e 10 38 10
e 10 45 6
e 10 50 10
e 10 51 3
e 10 58 2
e 10 61 7
e 10 62 8
e 10 69 9
e 10 73 1
e 10 74 10
e 10 81 3
e 10 84 1
e 10 85 2
e 10 92 7
e 10 98 6
e 10 99 1
e 10 106 6
e 10 109 3
e 10 110 3
e 10 117 6
e 10 121 7
e 10 122 6
e 10 129 1
e 10 132 2
e 10 133 6
e 10 140 1
e 10 145 1
e 10 146 4
e 10 153 7
e 10 156 6
e 10 157 6
e 10 164 3
e 10 168 2
e 10 169 2
e 10 176 5
e 10 179 2
e 10 180 9
e 10 187 7
e 11 17 6
e 11 18 3
e 11 19 9
e 11 20 1
e 11 21 10
e 11 29 1
e 11 30 9
e 11 31 3
e 11 32 10
e 11 33 2
e 11 40 8
e 11 41 10
e 11 42 5
e 11 43 10
e 11 44 3
e 11 53 2
e 11 54 3
e 11 55 4
e 11 56 1
e 11 57 10
e 11 64 10
e 11 65 8
e 11 66 5
e 11 67 1
e 11 68 4
e 11 76 3
e 11 77 8
e 11 78 8
e 11 79 9
e 11 80 10
e 11 87 5
e 11 88 1
e 11 89 4
e 11 90 9
e 11 91 10
e 11 101 3
e 11 102 10
e 11 103 1
e 11 104 2
e 11 105 5
e 11 112 2
e 11 113 1
e 11 114 6
e 11 115 8
e 11 116 3
e 11 124 9
e 11 125 9
e 11 126 6
e 11 127 8
e 11 128 4
e 11 135 1
e 11 136 3
e 11 137 9
e 11 138 1
e 11 139 10
e 11 148 6
e 11 149 3
e 11 150 1
e 11 151 6
e 11 152 10
e 11 159 8
e 11 160 10
e 11 161 3
e 11 162 3
e 11 163 7
e 11 171 9
e 11 172 2
e 11 173 4
e 11 174 6
e 11 175 5
e 11 182 7
e 11 183 9
e 11 184 4
e 11 185 9
e 11 186 9
e 12 23 10
e 12 25 3
e 12 27 5
e 12 30 1
e 12 32 2
e 12 46 10
e 12 49 7
e 12 51 2
e 12 54 2
e 12 56 3
e 12 70 2
e 12 72 1
e 12 74 10
e 12 77 1
e 12 79 6
e 12 93 5
e 12 97 4
e 12 99 10
e 12 102 4
e 12 104 9
e 12 118 6
e 12 120 9
e 12 122 10
e 12 125 3
e 12 127 3
e 12 141 1
e 12 144 3
e 12 146 6
e 12 149 5
e 12 151 8
e 12 165 5
e 12 167 9
e 12 169 2
e 12 172 9
e 12 174 8
e 12 188 9
e 13 23 1
e 13 24 8
e 13 26 8
e 13 29 3
e 13 31 9
e 13 46 1
e 13 48 6
e 13 50 3
e 13 53 4
e 13 55 2
e 13 70 8
e 13 71 9
e 13 73 3
e 13 76 10
e 13 78 6
e 13 93 4
e 13 96 7
e 13 98 7
e 13 101 6
e 13 103 4
e 13 118 5
e 13 119 3
e 13 121 7
e 13 124 5
e 13 126 1
e 13 141 9
e 13 143 10
e 13 145 3
e 13 148 6
e 13 150 7
e 13 165 7
e 13 166 9
e 13 168 6
e 13 171 5
e 13 173 4
e 13 188 9
e 14 23 1
e 14 25 7
e 14 28 5
e 14 30 8
e 14 33 4
e 14 46 10
e 14 49 8
e 14 52 7
e 14 54 4
e 14 57 8
e 14 70 1
e 14 72 5
e 14 75 3
e 14 77 9
e 14 80 5
e 14 93 3
e 14 97 10
e 14 100 6
e 14 102 4
e 14 105 4
e 14 118 10
e 14 120 10
e 14 123 8
e 14 125 8
e 14 128 2
e 14 141 8
e 14 144 4
e 14 147 2
e 14 149 2
e 14 152 8
e 14 165 6
e 14 167 9
e 14 170 7
e 14 172 2
e 14 175 1
e 14 188 2
e 15 23 5
e 15 24 8
e 15 28 9
e 15 29 5
e 15 33 6
e 15 46 1
e 15 48 7
e 15 52 5
e 15 53 3
e 15 57 2
e 15 70 6
e 15 71 8
e 15 75 10
e 15 76 1
e 15 80 2
e 15 93 5
e 15 96 1
e 15 100 10
e 15 101 4
e 15 105 8
e 15 118 4
e 15 119 6
e 15 123 9
e 15 124 9
e 15 128 1
e 15 141 3
e 15 143 10
e 15 147 3
e 15 148 7
e 15 152 7
e 15 165 4
e 15 166 10
e 15 170 4
e 15 171 3
e 15 175 9
e 15 188 4
e 16 23 6
e 16 26 5
e 16 27 10
e 16 31 7
e 16 32 7
e 16 46 8
e 16 50 8
e 16 51 4
e 16 55 9
e 16 56 2
e 16 70 6
e 16 73 8
e 16 74 7
e 16 78 7
e 16 79 1
e 16 93 8
e 16 98 1
e 16 99 5
e 16 103 4
e 16 104 7
e 16 118 1
e 16 121 9
e 16 122 10
e 16 126 5
e 16 127 9
e 16 141 6
e 16 145 10
e 16 146 9
e 16 150 1
e 16 151 1
e 16 165 8
e 16 168 4
e 16 169 10
e 16 173 6
e 16 174 7
e 16 188 9
e 17 23 1
e 17 25 1
e 17 27 5
e 17 34 9
e 17 46 3
e 17 49 2
e 17 51 4
e 17 58 1
e 17 70 8
e 17 72 9
e 17 74 4
e 17 81 8
e 17 93 5
e 17 97 1
e 17 99 2
e 17 106 9
e 17 118 9
e 17 120 6
e 17 122 5
e 17 129 2
e 17 141 8
e 17 144 8
e 17 146 10
e 17 153 6
e 17 165 3
e 17 167 4
e 17 169 10
e 17 176 2
e 17 188 3
e 18 23 2
e 18 24 10
e 18 26 8
e 18 34 9
e 18 46 5
e 18 48 5
e 18 50 5
e 18 58 3
e 18 70 2
e 18 71 5
e 18 73 10
e 18 81 6
e 18 93 2
e 18 96 6
e 18 98 4
e 18 106 4
e 18 118 3
e 18 119 8
e 18 121 9
e 18 129 8
e 18 141 6
e 18 143 8
e 18 145 5
e 18 153 7
e 18 165 2
e 18 166 5
e 18 168 4
e 18 176 3
e 18 188 5
e 19 23 6
e 19 25 10
e 19 28 6
e 19 34 9
e 19 46 8
e 19 49 8
e 19 52 4
e 19 58 2
e 19 70 10
e 19 72 9
e 19 75 7
e 19 81 8
e 19 93 5
e 19 97 10
e 19 100 4
e 19 106 7
e 19 118 2
e 19 120 2
e 19 123 4
e 19 129 7
e 19 141 10
e 19 144 8
e 19 147 1
e 19 153 5
e 19 165 2
e 19 167 1
e 19 170 1
e 19 176 8
e 19 188 5
e 20 23 3
e 20 24 5
e 20 28 8
e 20 34 6
e 20 46 3
e 20 48 9
e 20 52 5
e 20 58 5
e 20 70 1
e 20 71 3
e 20 75 10
e 20 81 5
e 20 93 2
e 20 96 1
e 20 100 10
e 20 106 9
e 20 118 6
e 20 119 5
e 20 123 3
e 20 129 8
e 20 141 3
e 20 143 8
e 20 147 6
e 20 153 1
e 20 165 9
e 20 166 6
e 20 170 6
e 20 176 1
e 20 188 7
e 21 23 7
e 21 26 7
e 21 27 9
e 21 34 1
e 21 46 8
e 21 50 4
e 21 51 8
e 21 58 8
e 21 70 10
e 21 73 1
e 21 74 1
e 21 81 9
e 21 93 10
e 21 98 8
e 21 99 8
e 21 106 2
e 21 118 9
e 21 121 6
e 21 122 10
e 21 129 8
e 21 141 5
e 21 145 9
e 21 146 10
e 21 153 5
e 21 165 1
e 21 168 6
e 21 169 3
e 21 176 10
e 21 188 4
e 22 23 7
e 22 29 8
e 22 30 5
e 22 31 7
e 22 32 4
e 22 33 7
e 22 46 2
e 22 53 6
e 22 54 6
e 22 55 2
e 22 56 9
e 22 57 3
e 22 70 6
e 22 76 1
e 22 77 10
e 22 78 2
e 22 79 4
e 22 80 9
e 22 93 8
e 22 101 3
e 22 102 6
e 22 103 6
e 22 104 9
e 22 105 6
e 22 118 5
e 22 124 7
e 22 125 9
e 22 126 9
e 22 127 9
e 22 128 1
e 22 141 3
e 22 148 8
e 22 149 9
e 22 150 7
e 22 151 6
e 22 152 8
e 22 165 2
e 22 171 7
e 22 172 7
e 22 173 1
e 22 174 1
e 22 175 8
e 22 188 1
e 23 35 1
e 23 36 7
e 23 37 6
e 23 38 8
e 23 39 2
e 23 40 2
e 23 41 2
e 23 42 6
e 23 43 2
e 23 44 8
e 23 45 3
e 23 59 7
e 23 60 10
e 23 61 6
e 23 62 8
e 23 63 9
e 23 64 5
e 23 65 5
e 23 66 5
e 23 67 5
e 23 68 7
e 23 69 3
e 23 82 6
e 23 83 5
e 23 84 8
e 23 85 7
e 23 86 4
e 23 87 10
e 23 88 10
e 23 89 5
e 23 90 7
e 23 91 5
e 23 92 6
e 23 107 2
e 23 108 5
e 23 109 5
e 23 110 4
e 23 111 4
e 23 112 2
e 23 113 10
e 23 114 6
e 23 115 8
e 23 116 2
e 23 117 10
e 23 130 7
e 23 131 3
e 23 132 8
e 23 133 3
e 23 134 8
e 23 135 9
e 23 136 6
e 23 137 3
e 23 138 6
e 23 139 1
e 23 140 2
e 23 154 4
e 23 155 7
e 23 156 8
e 23 157 5
e 23 158 4
e 23 159 10
e 23 160 2
e 23 161 3
e 23 162 5
e 23 163 4
e 23 164 2
e 23 177 9
e 23 178 10
e 23 179 3
e 23 180 10
e 23 181 7
e 23 182 1
e 23 183 3
e 23 184 4
e 23 185 3
e 23 186 3
e 23 187 7
e 24 47 1
e 24 49 5
e 24 51 1
e 24 54 2
e 24 56 3
e 24 60 4
e 24 62 5
e 24 65 7
e 24 67 5
e 24 94 4
e 24 97 9
e 24 99 10
e 24 102 4
e 24 104 5
e 24 108 7
e 24 110 4
e 24 113 10
e 24 115 6
e 24 142 1
e 24 144 6
e 24 146 7
e 24 149 1
e 24 151 5
e 24 155 3
e 24 157 2
e 24 160 8
e 24 162 4
e 24 189 1
e 25 47 6
e 25 48 8
e 25 50 9
e 25 53 3
e 25 55 5
e 25 59 9
e 25 61 4
e 25 64 9
e 25 66 7
e 25 94 2
e 25 96 6
e 25 98 5
e 25 101 7
e 25 103 7
e 25 107 3
e 25 109 10
e 25 112 8
e 25 114 2
e 25 142 3
e 25 143 4
e 25 145 1
e 25 148 9
e 25 150 6
e 25 154 4
e 25 156 2
e 25 159 4
e 25 161 8
e 25 189 8
e 26 47 10
e 26 49 2
e 26 52 3
e 26 54 10
e 26 57 4
e 26 60 2
e 26 63 5
e 26 65 5
e 26 68 3
e 26 94 4
e 26 97 3
e 26 100 3
e 26 102 1
e 26 105 9
e 26 108 5
e 26 111 7
e 26 113 10
e 26 116 8
e 26 142 5
e 26 144 1
e 26 147 4
e 26 149 3
e 26 152 3
e 26 155 6
e 26 158 3
e 26 160 4
e 26 163 9
e 26 189 2
e 27 47 4
e 27 48 6
e 27 52 1
e 27 53 1
e 27 57 1
e 27 59 3
e 27 63 9
e 27 64 3
e 27 68 3
e 27 94 9
e 27 96 6
e 27 100 1
e 27 101 1
e 27 105 9
e 27 107 9
e 27 111 7
e 27 112 7
e 27 116 3
e 27 142 8
e 27 143 2
e 27 147 10
e 27 148 10
e 27 152 6
e 27 154 6
e 27 158 5
e 27 159 4
e 27 163 3
e 27 189 5
e 28 47 6
e 28 50 7
e 28 51 4
e 28 55 3
e 28 56 10
e 28 61 8
e 28 62 5
e 28 66 2
e 28 67 3
e 28 94 1
e 28 98 5
e 28 99 2
e 28 103 8
e 28 104 8
e 28 109 4
e 28 110 5
e 28 114 10
e 28 115 7
e 28 142 5
e 28 145 4
e 28 146 4
e 28 150 2
e 28 151 8
e 28 156 6
e 28 157 3
e 28 161 5
e 28 162 5
e 28 189 2
e 29 47 8
e 29 49 6
e 29 51 3
e 29 58 6
e 29 60 10
e 29 62 4
e 29 69 3
e 29 94 3
e 29 97 3
e 29 99 9
e 29 106 9
e 29 108 10
e 29 110 2
e 29 117 2
e 29 142 10
e 29 144 6
e 29 146 8
e 29 153 5
e 29 155 3
e 29 157 9
e 29 164 9
e 29 189 1
e 30 47 3
e 30 48 2
e 30 50 10
e 30 58 7
e 30 59 3
e 30 61 10
e 30 69 5
e 30 94 2
e 30 96 2
e 30 98 10
e 30 106 6
e 30 107 6
e 30 109 10
e 30 117 10
e 30 142 7
e 30 143 10
e 30 145 2
e 30 153 7
e 30 154 1
e 30 156 1
e 30 164 7
e 30 189 4
e 31 47 4
e 31 49 4
e 31 52 10
e 31 58 10
e 31 60 5
e 31 63 5
e 31 69 3
e 31 94 7
e 31 97 5
e 31 100 1
e 31 106 8
e 31 108 6
e 31 111 1
e 31 117 6
e 31 142 10
e 31 144 8
e 31 147 1
e 31 153 6
e 31 155 8
e 31 158 5
e 31 164 3
e 31 189 4
e 32 47 7
e 32 48 6
e 32 52 9
e 32 58 1
e 32 59 8
e 32 63 1
e 32 69 3
e 32 94 10
e 32 96 7
e 32 100 7
e 32 106 10
e 32 107 8
e 32 111 7
e 32 117 9
e 32 142 7
e 32 143 5
e 32 147 1
e 32 153 6
e 32 154 9
e 32 158 7
e 32 164 3
e 32 189 5
e 33 47 2
e 33 50 6
e 33 51 7
e 33 58 7
e 33 61 10
e 33 62 8
e 33 69 6
e 33 94 9
e 33 98 4
e 33 99 6
e 33 106 7
e 33 109 8
e 33 110 10
e 33 117 4
e 33 142 5
e 33 145 10
e 33 146 4
e 33 153 5
e 33 156 9
e 33 157 10
e 33 164 3
e 33 189 5
e 34 47 1
e 34 53 6
e 34 54 10
e 34 55 10
e 34 56 5
e 34 57 1
e 34 64 3
e 34 65 3
e 34 66 4
e 34 67 10
e 34 68 4
e 34 94 8
e 34 101 3
e 34 102 3
e 34 103 2
e 34 104 8
e 34 105 5
e 34 112 5
e 34 113 3
e 34 114 4
e 34 115 4
e 34 116 4
e 34 142 9
e 34 148 8
e 34 149 8
e 34 150 4
e 34 151 6
e 34 152 4
e 34 159 6
e 34 160 6
e 34 161 3
e 34 162 7
e 34 163 7
e 34 189 9
e 35 47 5
e 35 49 9
e 35 51 6
e 35 54 10
e 35 56 5
e 35 70 5
e 35 94 2
e 35 97 3
e 35 99 10
e 35 102 10
e 35 104 3
e 35 118 3
e 35 142 6
e 35 144 4
e 35 146 5
e 35 149 8
e 35 151 7
e 35 165 1
e 35 189 2
e 36 47 6
e 36 48 4
e 36 50 7
e 36 53 3
e 36 55 3
e 36 70 8
e 36 94 4
e 36 96 8
e 36 98 8
e 36 101 10
e 36 103 1
e 36 118 8
e 36 142 5
e 36 143 3
e 36 145 1
e 36 148 8
e 36 150 5
e 36 165 2
e 36 189 2
e 37 47 1
e 37 49 7
e 37 52 5
e 37 54 5
e 37 57 9
e 37 70 5
e 37 94 5
e 37 97 3
e 37 100 7
e 37 102 10
e 37 105 2
e 37 118 1
e 37 142 2
e 37 144 4
e 37 147 4
e 37 149 1
e 37 152 9
e 37 165 8
e 37 189 5
e 38 47 4
e 38 48 7
e 38 52 8
e 38 53 5
e 38 57 4
e 38 70 8
e 38 94 1
e 38 96 8
e 38 100 10
e 38 101 3
e 38 105 2
e 38 118 1
e 38 142 3
e 38 143 9
e 38 147 9
e 38 148 3
e 38 152 5
e 38 165 7
e 38 189 8
e 39 47 2
e 39 50 6
e 39 51 5
e 39 55 8
e 39 56 4
e 39 70 10
e 39 94 5
e 39 98 2
e 39 99 3
e 39 103 9
e 39 104 7
e 39 118 9
e 39 142 3
e 39 145 1
e 39 146 1
e 39 150 1
e 39 151 4
e 39 165 7
e 39 189 6
e 40 47 4
e 40 49 9
e 40 51 9
e 40 58 10
e 40 70 8
e 40 94 9
e 40 97 4
e 40 99 2
e 40 106 9
e 40 118 2
e 40 142 2
e 40 144 7
e 40 146 10
e 40 153 2
e 40 165 6
e 40 189 5
e 41 47 6
e 41 48 1
e 41 50 3
e 41 58 10
e 41 70 8
e 41 94 4
e 41 96 6
e 41 98 8
e 41 106 4
e 41 118 2
e 41 142 9
e 41 143 10
e 41 145 10
e 41 153 4
e 41 165 5
e 41 189 7
e 42 47 10
e 42 49 9
e 42 52 2
e 42 58 10
e 42 70 10
e 42 94 7
e 42 97 1
e 42 100 2
e 42 106 10
e 42 118 5
e 42 142 8
e 42 144 1
e 42 147 3
e 42 153 8
e 42 165 10
e 42 189 10
e 43 47 9
e 43 48 3
e 43 52 1
e 43 58 4
e 43 70 5
e 43 94 10
e 43 96 5
e 43 100 3
e 43 106 3
e 43 118 2
e 43 142 8
e 43 143 8
e 43 147 5
e 43 153 9
e 43 165 9
e 43 189 3
e 44 47 7
e 44 50 10
e 44 51 6
e 44 58 4
e 44 70 7
e 44 94 4
e 44 98 5
e 44 99 3
e 44 106 8
e 44 118 3
e 44 142 4
e 44 145 7
e 44 146 6
e 44 153 3
e 44 165 6
e 44 189 2
e 45 47 5
e 45 53 5
e 45 54 2
e 45 55 7
e 45 56 6
e 45 57 4
e 45 70 5
e 45 94 8
e 45 101 1
e 45 102 8
e 45 103 2
e 45 104 2
e 45 105 10
e 45 118 5
e 45 142 6
e 45 148 4
e 45 149 6
e 45 150 1
e 45 151 3
e 45 152 9
e 45 165 10
e 45 189 6
e 46 47 10
e 46 59 5
e 46 60 4
e 46 61 1
e 46 62 8
e 46 63 9
e 46 64 5
e 46 65 7
e 46 66 9
e 46 67 4
e 46 68 1
e 46 69 8
e 46 94 4
e 46 107 3
e 46 108 4
e 46 109 4
e 46 110 4
e 46 111 6
e 46 112 10
e 46 113 10
e 46 114 7
e 46 115 4
e 46 116 5
e 46 117 2
e 46 142 7
e 46 154 2
e 46 155 6
e 46 156 1
e 46 157 4
e 46 158 1
e 46 159 7
e 46 160 5
e 46 161 6
e 46 162 9
e 46 163 1
e 46 164 5
e 46 189 5
e 47 71 9
e 47 72 7
e 47 73 5
e 47 74 7
e 47 75 10
e 47 76 3
e 47 77 9
e 47 78 3
e 47 79 3
e 47 80 3
e 47 81 10
e 47 82 4
e 47 83 2
e 47 84 6
e 47 85 9
e 47 86 10
e 47 87 7
e 47 88 2
e 47 89 9
e 47 90 7
e 47 91 6
e 47 92 2
e 47 93 5
e 47 119 3
e 47 120 7
e 47 121 6
e 47 122 1
e 47 123 5
e 47 124 9
e 47 125 5
e 47 126 5
e 47 127 3
e 47 128 6
e 47 129 9
e 47 130 10
e 47 131 2
e 47 132 10
e 47 133 2
e 47 134 2
e 47 135 9
e 47 136 4
e 47 137 7
e 47 138 3
e 47 139 8
e 47 140 9
e 47 141 9
e 47 166 5
e 47 167 1
e 47 168 3
e 47 169 6
e 47 170 4
e 47 171 8
e 47 172 7
e 47 173 9
e 47 174 8
e 47 175 6
e 47 176 2
e 47 177 5
e 47 178 1
e 47 179 1
e 47 180 6
e 47 181 10
e 47 182 1
e 47 183 2
e 47 184 2
e 47 185 10
e 47 186 1
e 47 187 7
e 47 188 4
e 48 95 6
e 48 97 5
e 48 99 3
e 48 102 7
e 48 104 2
e 48 108 2
e 48 110 5
e 48 113 10
e 48 115 1
e 48 120 6
e 48 122 7
e 48 125 3
e 48 127 5
e 48 131 5
e 48 133 1
e 48 136 4
e 48 138 2
e 48 190 4
e 49 95 9
e 49 96 5
e 49 98 5
e 49 101 1
e 49 103 6
e 49 107 8
e 49 109 1
e 49 112 1
e 49 114 1
e 49 119 10
e 49 121 8
e 49 124 6
e 49 126 7
e 49 130 10
e 49 132 3
e 49 135 8
e 49 137 7
e 49 190 5
e 50 95 10
e 50 97 2
e 50 100 6
e 50 102 6
e 50 105 9
e 50 108 5
e 50 111 4
e 50 113 4
e 50 116 2
e 50 120 10
e 50 123 10
e 50 125 5
e 50 128 4
e 50 131 4
e 50 134 7
e 50 136 4
e 50 139 2
e 50 190 4
e 51 95 7
e 51 96 7
e 51 100 2
e 51 101 4
e 51 105 5
e 51 107 5
e 51 111 8
e 51 112 3
e 51 116 6
e 51 119 6
e 51 123 3
e 51 124 6
e 51 128 7
e 51 130 8
e 51 134 9
e 51 135 7
e 51 139 7
e 51 190 5
e 52 95 6
e 52 98 10
e 52 99 8
e 52 103 7
e 52 104 8
e 52 109 10
e 52 110 10
e 52 114 10
e 52 115 1
e 52 121 1
e 52 122 8
e 52 126 2
e 52 127 1
e 52 132 9
e 52 133 7
e 52 137 6
e 52 138 8
e 52 190 10
e 53 95 7
e 53 97 4
e 53 99 3
e 53 106 5
e 53 108 7
e 53 110 7
e 53 117 10
e 53 120 10
e 53 122 2
e 53 129 10
e 53 131 3
e 53 133 7
e 53 140 3
e 53 190 8
e 54 95 7
e 54 96 9
e 54 98 2
e 54 106 4
e 54 107 7
e 54 109 6
e 54 117 9
e 54 119 8
e 54 121 4
e 54 129 6
e 54 130 9
e 54 132 5
e 54 140 5
e 54 190 10
e 55 95 7
e 55 97 1
e 55 100 8
e 55 106 6
e 55 108 7
e 55 111 9
e 55 117 3
e 55 120 4
e 55 123 9
e 55 129 5
e 55 131 4
e 55 134 8
e 55 140 8
e 55 190 6
e 56 95 2
e 56 96 4
e 56 100 7
e 56 106 1
e 56 107 7
e 56 111 1
e 56 117 2
e 56 119 9
e 56 123 1
e 56 129 10
e 56 130 8
e 56 134 8
e 56 140 8
e 56 190 5
e 57 95 3
e 57 98 3
e 57 99 4
e 57 106 2
e 57 109 1
e 57 110 5
e 57 117 7
e 57 121 9
e 57 122 10
e 57 129 5
e 57 132 6
e 57 133 10
e 57 140 5
e 57 190 1
e 58 95 1
e 58 101 6
e 58 102 6
e 58 103 2
e 58 104 2
e 58 105 9
e 58 112 5
e 58 113 1
e 58 114 10
e 58 115 6
e 58 116 4
e 58 124 4
e 58 125 1
e 58 126 3
e 58 127 4
e 58 128 6
e 58 135 1
e 58 136 7
e 58 137 9
e 58 138 1
e 58 139 6
e 58 190 5
e 59 95 3
e 59 97 8
e 59 99 1
e 59 102 9
e 59 104 1
e 59 118 3
e 59 120 8
e 59 122 1
e 59 125 5
e 59 127 9
e 59 141 8
e 59 190 5
e 60 95 5
e 60 96 2
e 60 98 10
e 60 101 4
e 60 103 2
e 60 118 2
e 60 119 5
e 60 121 2
e 60 124 10
e 60 126 7
e 60 141 2
e 60 190 5
e 61 95 8
e 61 97 6
e 61 100 5
e 61 102 3
e 61 105 6
e 61 118 5
e 61 120 4
e 61 123 9
e 61 125 7
e 61 128 4
e 61 141 6
e 61 190 5
e 62 95 1
e 62 96 4
e 62 100 6
e 62 101 4
e 62 105 8
e 62 118 1
e 62 119 4
e 62 123 1
e 62 124 7
e 62 128 10
e 62 141 9
e 62 190 5
e 63 95 9
e 63 98 7
e 63 99 1
e 63 103 8
e 63 104 9
e 63 118 4
e 63 121 10
e 63 122 7
e 63 126 4
e 63 127 2
e 63 141 5
e 63 190 5
e 64 95 9
e 64 97 6
e 64 99 3
e 64 106 1
e 64 118 10
e 64 120 2
e 64 122 6
e 64 129 5
e 64 141 5
e 64 190 7
e 65 95 2
e 65 96 5
e 65 98 6
e 65 106 5
e 65 118 3
e 65 119 10
e 65 121 2
e 65 129 9
e 65 141 1
e 65 190 2
e 66 95 5
e 66 97 4
e 66 100 10
e 66 106 6
e 66 118 8
e 66 120 8
e 66 123 3
e 66 129 1
e 66 141 7
e 66 190 8
e 67 95 2
e 67 96 1
e 67 100 10
e 67 106 2
e 67 118 10
e 67 119 10
e 67 123 8
e 67 129 2
e 67 141 8
e 67 190 2
e 68 95 2
e 68 98 6
e 68 99 8
e 68 106 7
e 68 118 3
e 68 121 2
e 68 122 1
e 68 129 9
e 68 141 6
e 68 190 4
e 69 95 5
e 69 101 6
e 69 102 5
e 69 103 10
e 69 104 3
e 69 105 4
e 69 118 3
e 69 124 7
e 69 125 8
e 69 126 2
e 69 127 6
e 69 128 10
e 69 141 5
e 69 190 6
e 70 95 10
e 70 107 3
e 70 108 3
e 70 109 9
e 70 110 1
e 70 111 5
e 70 112 5
e 70 113 10
e 70 114 8
e 70 115 6
e 70 116 2
e 70 117 1
e 70 130 5
e 70 131 7
e 70 132 8
e 70 133 2
e 70 134 2
e 70 135 6
e 70 136 6
e 70 137 4
e 70 138 3
e 70 139 7
e 70 140 7
e 70 190 2
e 71 95 4
e 71 97 10
e 71 99 9
e 71 102 3
e 71 104 1
e 71 108 4
e 71 110 4
e 71 113 8
e 71 115 6
e 71 142 6
e 71 190 7
e 72 95 5
e 72 96 4
e 72 98 4
e 72 101 8
e 72 103 7
e 72 107 5
e 72 109 1
e 72 112 3
e 72 114 6
e 72 142 4
e 72 190 2
e 73 95 5
e 73 97 6
e 73 100 5
e 73 102 2
e 73 105 10
e 73 108 1
e 73 111 1
e 73 113 1
e 73 116 1
e 73 142 9
e 73 190 6
e 74 95 10
e 74 96 7
e 74 100 3
e 74 101 9
e 74 105 4
e 74 107 5
e 74 111 9
e 74 112 6
e 74 116 6
e 74 142 2
e 74 190 8
e 75 95 5
e 75 98 3
e 75 99 2
e 75 103 1
e 75 104 8
e 75 109 5
e 75 110 8
e 75 114 6
e 75 115 2
e 75 142 7
e 75 190 10
e 76 95 1
e 76 97 6
e 76 99 9
e 76 106 4
e 76 108 8
e 76 110 9
e 76 117 5
e 76 142 7
e 76 190 6
e 77 95 10
e 77 96 7
e 77 98 1
e 77 106 8
e 77 107 5
e 77 109 7
e 77 117 5
e 77 142 2
e 77 190 6
e 78 95 9
e 78 97 6
e 78 100 5
e 78 106 2
e 78 108 6
e 78 111 3
e 78 117 1
e 78 142 10
e 78 190 9
e 79 95 5
e 79 96 9
e 79 100 1
e 79 106 1
e 79 107 10
e 79 111 9
e 79 117 9
e 79 142 10
e 79 190 4
e 80 95 3
e 80 98 6
e 80 99 8
e 80 106 9
e 80 109 5
e 80 110 2
e 80 117 3
e 80 142 2
e 80 190 2
e 81 95 7
e 81 101 4
e 81 102 10
e 81 103 1
e 81 104 3
e 81 105 10
e 81 112 4
e 81 113 4
e 81 114 6
e 81 115 2
e 81 116 10
e 81 142 10
e 81 190 4
e 82 95 5
e 82 97 3
e 82 99 8
e 82 102 2
e 82 104 6
e 82 118 5
e 82 142 7
e 82 190 4
e 83 95 10
e 83 96 6
e 83 98 1
e 83 101 6
e 83 103 9
e 83 118 9
e 83 142 8
e 83 190 7
e 84 95 5
e 84 97 8
e 84 100 9
e 84 102 3
e 84 105 8
e 84 118 3
e 84 142 8
e 84 190 3
e 85 95 6
e 85 96 5
e 85 100 4
e 85 101 6
e 85 105 5
e 85 118 9
e 85 142 4
e 85 190 3
e 86 95 3
e 86 98 4
e 86 99 10
e 86 103 7
e 86 104 7
e 86 118 10
e 86 142 9
e 86 190 5
e 87 95 7
e 87 97 4
e 87 99 4
e 87 106 10
e 87 118 8
e 87 142 4
e 87 190 3
e 88 95 10
e 88 96 7
e 88 98 4
e 88 106 10
e 88 118 3
e 88 142 5
e 88 190 9
e 89 95 6
e 89 97 5
e 89 100 5
e 89 106 2
e 89 118 6
e 89 142 4
e 89 190 4
e 90 95 7
e 90 96 9
e 90 100 5
e 90 106 10
e 90 118 6
e 90 142 10
e 90 190 4
e 91 95 4
e 91 98 5
e 91 99 2
e 91 106 7
e 91 118 6
e 91 142 7
e 91 190 9
e 92 95 9
e 92 101 3
e 92 102 8
e 92 103 5
e 92 104 10
e 92 105 3
e 92 118 9
e 92 142 3
e 92 190 5
e 93 95 7
e 93 107 1
e 93 108 8
e 93 109 1
e 93 110 4
e 93 111 8
e 93 112 9
e 93 113 3
e 93 114 9
e 93 115 3
e 93 116 4
e 93 117 8
e 93 142 7
e 93 190 1
e 94 95 3
e 94 119 9
e 94 120 5
e 94 121 10
e 94 122 1
e 94 123 4
e 94 124 8
e 94 125 9
e 94 126 2
e 94 127 10
e 94 128 3
e 94 129 1
e 94 130 2
e 94 131 5
e 94 132 1
e 94 133 9
e 94 134 3
e 94 135 3
e 94 136 4
e 94 137 5
e 94 138 9
e 94 139 9
e 94 140 5
e 94 141 5
e 94 190 9
e 95 143 8
e 95 144 3
e 95 145 9
e 95 146 3
e 95 147 5
e 95 148 4
e 95 149 9
e 95 150 9
e 95 151 9
e 95 152 10
e 95 153 7
e 95 154 7
e 95 155 8
e 95 156 2
e 95 157 1
e 95 158 10
e 95 159 6
e 95 160 3
e 95 161 3
e 95 162 3
e 95 163 7
e 95 164 8
e 95 165 6
e 95 166 2
e 95 167 6
e 95 168 5
e 95 169 5
e 95 170 6
e 95 171 6
e 95 172 5
e 95 173 9
e 95 174 1
e 95 175 9
e 95 176 10
e 95 177 4
e 95 178 3
e 95 179 9
e 95 180 2
e 95 181 9
e 95 182 7
e 95 183 9
e 95 184 8
e 95 185 4
e 95 186 6
e 95 187 7
e 95 188 6
e 95 189 1
e 96 191 1
e 97 191 10
e 98 191 9
e 99 191 10
e 100 191 8
e 101 191 6
e 102 191 7
e 103 191 8
e 104 191 5
e 105 191 10
e 106 191 10
e 107 191 10
e 108 191 7
e 109 191 3
e 110 191 8
e 111 191 1
e 112 191 2
e 113 191 2
e 114 191 2
e 115 191 7
e 116 191 4
e 117 191 3
e 118 191 1
e 119 191 9
e 120 191 4
e 121 191 9
e 122 191 3
e 123 191 8
e 124 191 2
e 125 191 6
e 126 191 10
e 127 191 8
e 128 191 2
e 129 191 3
e 130 191 10
e 131 191 1
e 132 191 7
e 133 191 9
e 134 191 3
e 135 191 9
e 136 191 2
e 137 191 6
e 138 191 10
e 139 191 8
e 140 191 8
e 141 191 4
e 142 191 1
e 143 191 10
e 144 191 2
e 145 191 3
e 146 191 6
e 147 191 10
e 148 191 10
e 149 191 6
e 150 191 1
e 151 191 7
e 152 191 10
e 153 191 1
e 154 191 4
e 155 191 10
e 156 191 4
e 157 191 10
e 158 191 3
e 159 191 8
e 160 191 8
e 161 191 10
e 162 191 7
e 163 191 6
e 164 191 7
e 165 191 1
e 166 191 1
e 167 191 6
e 168 191 2
e 169 191 3
e 170 191 7
e 171 191 7
e 172 191 3
e 173 191 4
e 174 191 2
e 175 191 1
e 176 191 3
e 177 191 3
e 178 191 8
e 179 191 6
e 180 191 3
e 181 191 3
e 182 191 1
e 183 191 5
e 184 191 6
e 185 191 4
e 186 191 7
e 187 191 3
e 188 191 4
e 189 191 8
e 190 191 4